c File:  hole6.cnf
c
c SOURCE: John Hooker (jh38+@andrew.cmu.edu)
c
c DESCRIPTION: Pigeon hole problem of placing n (for file holen) pigeons
c              in n+1 holes without placing 2 pigeons in the same hole
c
c NOTE: Part of the collection at the Forschungsinstitut fuer 
c       anwendungsorientierte Wissensverarbeitung in Ulm Germany.
c
c NOTE: Not satisfiable
c
p cnf 5 6 
1 -3 0
1 2 0
1 3 0
4 -2 0
2 4 0
4 5 0
-1 0
